objective value:                      1.4892650974544
x(0,2,1)                                            1 	(obj:0)
x(1,4,0)                                            1 	(obj:0)
x(1,13,2)                                           1 	(obj:0)
x(2,8,1)                                            1 	(obj:0)
x(3,1,0)                                            1 	(obj:0)
x(3,1,2)                                            1 	(obj:0)
x(4,13,0)                                           1 	(obj:0)
x(8,10,1)                                           1 	(obj:0)
x(10,0,1)                                           1 	(obj:0)
x(13,3,0)                                           1 	(obj:0)
x(13,3,2)                                           1 	(obj:0)
xc(0,9)                                             1 	(obj:0)
xc(2,12)                                            1 	(obj:0)
xc(3,7)                                             1 	(obj:0)
xc(3,17)                                            1 	(obj:0)
xc(4,8)                                             1 	(obj:0)
u(0,0)                                1.4892650974544 	(obj:0)
u(0,2)                                1.4892650974544 	(obj:0)
u(1,0)                              0.165761741939701 	(obj:0)
u(1,2)                              0.165761741939701 	(obj:0)
u(2,1)                              0.701519746342699 	(obj:0)
u(2,2)                                1.4892650974544 	(obj:0)
u(3,1)                                1.4892650974544 	(obj:0)
u(4,0)                              0.854154569696698 	(obj:0)
u(4,1)                                1.4892650974544 	(obj:0)
u(5,1)                                1.4892650974544 	(obj:0)
u(5,2)                                1.4892650974544 	(obj:0)
u(6,1)                                1.4892650974544 	(obj:0)
u(6,2)                                1.4892650974544 	(obj:0)
u(7,0)                                1.4892650974544 	(obj:0)
u(7,2)                                1.4892650974544 	(obj:0)
u(8,1)                                1.1900467712547 	(obj:0)
u(9,0)                                1.4892650974544 	(obj:0)
u(9,2)                                1.4892650974544 	(obj:0)
u(10,0)                               1.4892650974544 	(obj:0)
u(10,1)                               1.4892650974544 	(obj:0)
u(10,2)                               1.4892650974544 	(obj:0)
u(11,0)                               1.4892650974544 	(obj:0)
u(11,1)                               1.4892650974544 	(obj:0)
u(11,2)                               1.4892650974544 	(obj:0)
u(12,0)                               1.4892650974544 	(obj:0)
u(12,1)                               1.4892650974544 	(obj:0)
u(12,2)                               1.4892650974544 	(obj:0)
u(13,0)                               1.4892650974544 	(obj:0)
u(13,1)                               1.4892650974544 	(obj:0)
u(13,2)                               1.4892650974544 	(obj:0)
u(14,0)                               1.4892650974544 	(obj:0)
u(14,1)                               1.4892650974544 	(obj:0)
u(14,2)                               1.4892650974544 	(obj:0)
u(15,0)                               1.4892650974544 	(obj:0)
u(15,1)                               1.4892650974544 	(obj:0)
u(15,2)                               1.4892650974544 	(obj:0)
u(16,0)                               1.4892650974544 	(obj:0)
u(16,1)                               1.4892650974544 	(obj:0)
u(16,2)                               1.4892650974544 	(obj:0)
u(17,0)                               1.4892650974544 	(obj:0)
u(17,1)                               1.4892650974544 	(obj:0)
u(17,2)                               1.4892650974544 	(obj:0)
u(18,0)                               1.4892650974544 	(obj:0)
u(18,1)                               1.4892650974544 	(obj:0)
u(18,2)                               1.4892650974544 	(obj:0)
u(19,0)                               1.4892650974544 	(obj:0)
u(19,1)                               1.4892650974544 	(obj:0)
u(19,2)                               1.4892650974544 	(obj:0)
f(0,2,0)                                            1 	(obj:0)
f(0,9,0)                                            1 	(obj:0)
f(0,9,1)                                            1 	(obj:0)
f(0,9,2)                                            1 	(obj:0)
f(0,9,3)                                            1 	(obj:0)
f(0,9,4)                                            1 	(obj:0)
f(1,4,1)                                            1 	(obj:0)
f(1,4,3)                                            1 	(obj:0)
f(1,13,2)                                           1 	(obj:0)
f(2,8,0)                                            1 	(obj:0)
f(2,8,2)                                            1 	(obj:0)
f(3,1,2)                                            1 	(obj:0)
f(3,1,3)                                            1 	(obj:0)
f(4,8,1)                                            1 	(obj:0)
f(4,8,3)                                            1 	(obj:0)
f(4,8,4)                                            1 	(obj:0)
f(8,10,0)                                           1 	(obj:0)
f(8,10,1)                                           1 	(obj:0)
f(8,10,2)                                           1 	(obj:0)
f(8,10,3)                                           1 	(obj:0)
f(8,10,4)                                           1 	(obj:0)
f(10,0,0)                                           1 	(obj:0)
f(10,0,1)                                           1 	(obj:0)
f(10,0,2)                                           1 	(obj:0)
f(10,0,3)                                           1 	(obj:0)
f(10,0,4)                                           1 	(obj:0)
f(13,3,2)                                           1 	(obj:0)
z_r(0,)                               1.4892650974544 	(obj:0)
z_r(1,)                               1.4892650974544 	(obj:0)
z_r(2,)                               1.4892650974544 	(obj:0)
z                                     1.4892650974544 	(obj:1)
